instances/pdptw_sl_2016/RC10_6_4.txt
[Vehicles]
1 20 0
2 19 0
3 19 1
4 18 1

[Requests]
2 2
3 1
4 2
5 1
6 3
7 2
8 1
9 2
10 2
11 1

[Fixed Lines]
22 24 30 60 90 120 150 180 210 240 270 300 330 360 390 420 450 480 510 540 570 |
24 22 30 60 90 120 150 180 210 240 270 300 330 360 390 420 450 480 510 540 570 |
23 24 30 60 90 120 150 180 210 240 270 300 330 360 390 420 450 480 510 540 570 |
24 23 30 60 90 120 150 180 210 240 270 300 330 360 390 420 450 480 510 540 570 |
22 23 30 60 90 120 150 180 210 240 270 300 330 360 390 420 450 480 510 540 570 |
23 22 30 60 90 120 150 180 210 240 270 300 330 360 390 420 450 480 510 540 570 |

[Nodes]
0 0 600 0
1 0 600 0
2 57 111 1
3 252 306 2
4 102 161 3
5 27 102 2
6 332 398 1
7 285 337 3
8 267 329 1
9 405 450 3
10 126 161 2
11 353 384 1
12 508 560 3
13 496 561 1
14 369 414 2
15 456 510 1
16 373 444 2
17 421 479 1
18 265 324 1
19 411 469 2
20 458 528 2
21 419 506 1
22 0 600 2
23 0 600 2
24 0 600 2

[Positions]
30 100
160 90
48 153
170 7
35 46
117 132
144 54
142 118
145 123
111 103
172 78
114 53
23 53
26 55
162 168
138 90
114 103
35 24
149 138
104 104
24 35
46 28
20 20
100 160
180 20
