instances/pdptw_sl_sol/PDPTW-SL Solutions Homogeneous costs/3SLs/RC10_6_4.sol
Objective function value: 558.9576866107684

Vehicle 4: 0 (0.0)    4 (105.0)    24 (137.02)    30 (462.0)    23 (492.0)    20 (509.52)    13 (530.62)    0 (600.0)    
Vehicle 3: 0 (0.0)    2 (58.0)    8 (268.0)    18 (284.52)    7 (308.71)    11 (380.49)    21 (453.94)    17 (466.64)    12 (511.0)    0 (600.0)    
Vehicle 2: 1 (0.0)    10 (128.0)    3 (254.0)    50 (272.4)    43 (274.4)    45 (283.25)    6 (333.76)    9 (408.0)    19 (417.07)    16 (429.12)    15 (457.42)    1 (600.0)    
Vehicle 1: 1 (0.0)    5 (62.0)    35 (96.76)    34 (313.25)    14 (377.76)    1 (600.0)    

Scheduled lines' departures:

Request 10 from transfer node 24(50) to 22(30) at time 300 travel time 160.0
Request 3 from transfer node 24(43) to 22(23) at time 330 travel time 160.0
Request 5 from transfer node 23(35) to 24(45) at time 120 travel time 161.25
Request 4 from transfer node 22(24) to 23(34) at time 150 travel time 161.25

#Let transfer node X(x), where X is the physical transfer node and x is its replication related to request y. Routing considers replicated transfer nodes only, and not physical ones.